[VALIDATOR STDOUT]
Checking plan: /home/jfan5/Safety-gen/runs/benchmark/optic/blocksworld_20260205_140901/blocksworld/optic_results/bw_ops3_n22_seed22001.plan
Plan to validate:

Plan size: 108
1:
(unstack b15 b9)
 
2:
(putdown b15)
 
3:
(unstack b9 b7)
 
4:
(putdown b9)
 
5:
(pickup b7)
 
6:
(stack b7 b15)
 
7:
(pickup b9)
 
8:
(stack b9 b7)
 
9:
(unstack b17 b2)
 
10:
(putdown b17)
 
11:
(unstack b4 b5)
 
12:
(stack b4 b2)
 
13:
(unstack b5 b3)
 
14:
(putdown b5)
 
15:
(unstack b3 b19)
 
16:
(stack b3 b9)
 
17:
(unstack b19 b14)
 
18:
(putdown b19)
 
19:
(unstack b14 b18)
 
20:
(stack b14 b4)
 
21:
(unstack b16 b22)
 
22:
(stack b16 b18)
 
23:
(unstack b22 b13)
 
24:
(stack b22 b14)
 
25:
(unstack b13 b1)
 
26:
(putdown b13)
 
27:
(pickup b5)
 
28:
(stack b5 b1)
 
29:
(unstack b16 b18)
 
30:
(putdown b16)
 
31:
(unstack b18 b10)
 
32:
(stack b18 b22)
 
33:
(pickup b16)
 
34:
(stack b16 b18)
 
35:
(unstack b12 b20)
 
36:
(stack b12 b10)
 
37:
(unstack b20 b11)
 
38:
(putdown b20)
 
39:
(pickup b11)
 
40:
(stack b11 b5)
 
41:
(pickup b20)
 
42:
(stack b20 b11)
 
43:
(unstack b12 b10)
 
44:
(putdown b12)
 
45:
(unstack b10 b8)
 
46:
(stack b10 b16)
 
47:
(pickup b17)
 
48:
(stack b17 b8)
 
49:
(pickup b12)
 
50:
(stack b12 b10)
 
51:
(unstack b20 b11)
 
52:
(putdown b20)
 
53:
(unstack b11 b5)
 
54:
(putdown b11)
 
55:
(unstack b12 b10)
 
56:
(putdown b12)
 
57:
(unstack b10 b16)
 
58:
(putdown b10)
 
59:
(unstack b16 b18)
 
60:
(putdown b16)
 
61:
(unstack b18 b22)
 
62:
(putdown b18)
 
63:
(unstack b22 b14)
 
64:
(putdown b22)
 
65:
(unstack b14 b4)
 
66:
(putdown b14)
 
67:
(unstack b4 b2)
 
68:
(putdown b4)
 
69:
(unstack b2 b21)
 
70:
(stack b2 b3)
 
71:
(pickup b4)
 
72:
(stack b4 b2)
 
73:
(unstack b21 b6)
 
74:
(putdown b21)
 
75:
(pickup b14)
 
76:
(stack b14 b4)
 
77:
(pickup b22)
 
78:
(stack b22 b14)
 
79:
(pickup b6)
 
80:
(stack b6 b12)
 
81:
(pickup b20)
 
82:
(stack b20 b11)
 
83:
(pickup b18)
 
84:
(stack b18 b22)
 
85:
(pickup b16)
 
86:
(stack b16 b18)
 
87:
(pickup b13)
 
88:
(stack b13 b21)
 
89:
(pickup b10)
 
90:
(stack b10 b16)
 
91:
(unstack b6 b12)
 
92:
(putdown b6)
 
93:
(pickup b12)
 
94:
(stack b12 b10)
 
95:
(pickup b6)
 
96:
(stack b6 b12)
 
97:
(unstack b5 b1)
 
98:
(putdown b5)
 
99:
(pickup b1)
 
100:
(stack b1 b6)
 
101:
(pickup b5)
 
102:
(stack b5 b1)
 
103:
(unstack b20 b11)
 
104:
(putdown b20)
 
105:
(pickup b11)
 
106:
(stack b11 b5)
 
107:
(pickup b20)
 
108:
(stack b20 b11)
 

Plan Validation details
-----------------------

Checking next happening (time 1)
Deleting (on b15 b9)
Deleting (clear b15)
Deleting (arm-empty)
Adding (holding b15)
Adding (clear b9)

Checking next happening (time 2)
Deleting (holding b15)
Adding (clear b15)
Adding (arm-empty)
Adding (on-table b15)

Checking next happening (time 3)
Deleting (on b9 b7)
Deleting (clear b9)
Deleting (arm-empty)
Adding (holding b9)
Adding (clear b7)

Checking next happening (time 4)
Deleting (holding b9)
Adding (clear b9)
Adding (arm-empty)
Adding (on-table b9)

Checking next happening (time 5)
Deleting (clear b7)
Deleting (on-table b7)
Deleting (arm-empty)
Adding (holding b7)

Checking next happening (time 6)
Deleting (clear b15)
Deleting (holding b7)
Adding (arm-empty)
Adding (clear b7)
Adding (on b7 b15)

Checking next happening (time 7)
Deleting (clear b9)
Deleting (on-table b9)
Deleting (arm-empty)
Adding (holding b9)

Checking next happening (time 8)
Deleting (clear b7)
Deleting (holding b9)
Adding (arm-empty)
Adding (clear b9)
Adding (on b9 b7)

Checking next happening (time 9)
Deleting (on b17 b2)
Deleting (clear b17)
Deleting (arm-empty)
Adding (holding b17)
Adding (clear b2)

Checking next happening (time 10)
Deleting (holding b17)
Adding (clear b17)
Adding (arm-empty)
Adding (on-table b17)

Checking next happening (time 11)
Deleting (on b4 b5)
Deleting (clear b4)
Deleting (arm-empty)
Adding (holding b4)
Adding (clear b5)

Checking next happening (time 12)
Deleting (clear b2)
Deleting (holding b4)
Adding (arm-empty)
Adding (clear b4)
Adding (on b4 b2)

Checking next happening (time 13)
Deleting (on b5 b3)
Deleting (clear b5)
Deleting (arm-empty)
Adding (holding b5)
Adding (clear b3)

Checking next happening (time 14)
Deleting (holding b5)
Adding (clear b5)
Adding (arm-empty)
Adding (on-table b5)

Checking next happening (time 15)
Deleting (on b3 b19)
Deleting (clear b3)
Deleting (arm-empty)
Adding (holding b3)
Adding (clear b19)

Checking next happening (time 16)
Deleting (clear b9)
Deleting (holding b3)
Adding (arm-empty)
Adding (clear b3)
Adding (on b3 b9)

Checking next happening (time 17)
Deleting (on b19 b14)
Deleting (clear b19)
Deleting (arm-empty)
Adding (holding b19)
Adding (clear b14)

Checking next happening (time 18)
Deleting (holding b19)
Adding (clear b19)
Adding (arm-empty)
Adding (on-table b19)

Checking next happening (time 19)
Deleting (on b14 b18)
Deleting (clear b14)
Deleting (arm-empty)
Adding (holding b14)
Adding (clear b18)

Checking next happening (time 20)
Deleting (clear b4)
Deleting (holding b14)
Adding (arm-empty)
Adding (clear b14)
Adding (on b14 b4)

Checking next happening (time 21)
Deleting (on b16 b22)
Deleting (clear b16)
Deleting (arm-empty)
Adding (holding b16)
Adding (clear b22)

Checking next happening (time 22)
Deleting (clear b18)
Deleting (holding b16)
Adding (arm-empty)
Adding (clear b16)
Adding (on b16 b18)

Checking next happening (time 23)
Deleting (on b22 b13)
Deleting (clear b22)
Deleting (arm-empty)
Adding (holding b22)
Adding (clear b13)

Checking next happening (time 24)
Deleting (clear b14)
Deleting (holding b22)
Adding (arm-empty)
Adding (clear b22)
Adding (on b22 b14)

Checking next happening (time 25)
Deleting (on b13 b1)
Deleting (clear b13)
Deleting (arm-empty)
Adding (holding b13)
Adding (clear b1)

Checking next happening (time 26)
Deleting (holding b13)
Adding (clear b13)
Adding (arm-empty)
Adding (on-table b13)

Checking next happening (time 27)
Deleting (clear b5)
Deleting (on-table b5)
Deleting (arm-empty)
Adding (holding b5)

Checking next happening (time 28)
Deleting (clear b1)
Deleting (holding b5)
Adding (arm-empty)
Adding (clear b5)
Adding (on b5 b1)

Checking next happening (time 29)
Deleting (on b16 b18)
Deleting (clear b16)
Deleting (arm-empty)
Adding (holding b16)
Adding (clear b18)

Checking next happening (time 30)
Deleting (holding b16)
Adding (clear b16)
Adding (arm-empty)
Adding (on-table b16)

Checking next happening (time 31)
Deleting (on b18 b10)
Deleting (clear b18)
Deleting (arm-empty)
Adding (holding b18)
Adding (clear b10)

Checking next happening (time 32)
Deleting (clear b22)
Deleting (holding b18)
Adding (arm-empty)
Adding (clear b18)
Adding (on b18 b22)

Checking next happening (time 33)
Deleting (clear b16)
Deleting (on-table b16)
Deleting (arm-empty)
Adding (holding b16)

Checking next happening (time 34)
Deleting (clear b18)
Deleting (holding b16)
Adding (arm-empty)
Adding (clear b16)
Adding (on b16 b18)

Checking next happening (time 35)
Deleting (on b12 b20)
Deleting (clear b12)
Deleting (arm-empty)
Adding (holding b12)
Adding (clear b20)

Checking next happening (time 36)
Deleting (clear b10)
Deleting (holding b12)
Adding (arm-empty)
Adding (clear b12)
Adding (on b12 b10)

Checking next happening (time 37)
Deleting (on b20 b11)
Deleting (clear b20)
Deleting (arm-empty)
Adding (holding b20)
Adding (clear b11)

Checking next happening (time 38)
Deleting (holding b20)
Adding (clear b20)
Adding (arm-empty)
Adding (on-table b20)

Checking next happening (time 39)
Deleting (clear b11)
Deleting (on-table b11)
Deleting (arm-empty)
Adding (holding b11)

Checking next happening (time 40)
Deleting (clear b5)
Deleting (holding b11)
Adding (arm-empty)
Adding (clear b11)
Adding (on b11 b5)

Checking next happening (time 41)
Deleting (clear b20)
Deleting (on-table b20)
Deleting (arm-empty)
Adding (holding b20)

Checking next happening (time 42)
Deleting (clear b11)
Deleting (holding b20)
Adding (arm-empty)
Adding (clear b20)
Adding (on b20 b11)

Checking next happening (time 43)
Deleting (on b12 b10)
Deleting (clear b12)
Deleting (arm-empty)
Adding (holding b12)
Adding (clear b10)

Checking next happening (time 44)
Deleting (holding b12)
Adding (clear b12)
Adding (arm-empty)
Adding (on-table b12)

Checking next happening (time 45)
Deleting (on b10 b8)
Deleting (clear b10)
Deleting (arm-empty)
Adding (holding b10)
Adding (clear b8)

Checking next happening (time 46)
Deleting (clear b16)
Deleting (holding b10)
Adding (arm-empty)
Adding (clear b10)
Adding (on b10 b16)

Checking next happening (time 47)
Deleting (clear b17)
Deleting (on-table b17)
Deleting (arm-empty)
Adding (holding b17)

Checking next happening (time 48)
Deleting (clear b8)
Deleting (holding b17)
Adding (arm-empty)
Adding (clear b17)
Adding (on b17 b8)

Checking next happening (time 49)
Deleting (clear b12)
Deleting (on-table b12)
Deleting (arm-empty)
Adding (holding b12)

Checking next happening (time 50)
Deleting (clear b10)
Deleting (holding b12)
Adding (arm-empty)
Adding (clear b12)
Adding (on b12 b10)

Checking next happening (time 51)
Deleting (on b20 b11)
Deleting (clear b20)
Deleting (arm-empty)
Adding (holding b20)
Adding (clear b11)

Checking next happening (time 52)
Deleting (holding b20)
Adding (clear b20)
Adding (arm-empty)
Adding (on-table b20)

Checking next happening (time 53)
Deleting (on b11 b5)
Deleting (clear b11)
Deleting (arm-empty)
Adding (holding b11)
Adding (clear b5)

Checking next happening (time 54)
Deleting (holding b11)
Adding (clear b11)
Adding (arm-empty)
Adding (on-table b11)

Checking next happening (time 55)
Deleting (on b12 b10)
Deleting (clear b12)
Deleting (arm-empty)
Adding (holding b12)
Adding (clear b10)

Checking next happening (time 56)
Deleting (holding b12)
Adding (clear b12)
Adding (arm-empty)
Adding (on-table b12)

Checking next happening (time 57)
Deleting (on b10 b16)
Deleting (clear b10)
Deleting (arm-empty)
Adding (holding b10)
Adding (clear b16)

Checking next happening (time 58)
Deleting (holding b10)
Adding (clear b10)
Adding (arm-empty)
Adding (on-table b10)

Checking next happening (time 59)
Deleting (on b16 b18)
Deleting (clear b16)
Deleting (arm-empty)
Adding (holding b16)
Adding (clear b18)

Checking next happening (time 60)
Deleting (holding b16)
Adding (clear b16)
Adding (arm-empty)
Adding (on-table b16)

Checking next happening (time 61)
Deleting (on b18 b22)
Deleting (clear b18)
Deleting (arm-empty)
Adding (holding b18)
Adding (clear b22)

Checking next happening (time 62)
Deleting (holding b18)
Adding (clear b18)
Adding (arm-empty)
Adding (on-table b18)

Checking next happening (time 63)
Deleting (on b22 b14)
Deleting (clear b22)
Deleting (arm-empty)
Adding (holding b22)
Adding (clear b14)

Checking next happening (time 64)
Deleting (holding b22)
Adding (clear b22)
Adding (arm-empty)
Adding (on-table b22)

Checking next happening (time 65)
Deleting (on b14 b4)
Deleting (clear b14)
Deleting (arm-empty)
Adding (holding b14)
Adding (clear b4)

Checking next happening (time 66)
Deleting (holding b14)
Adding (clear b14)
Adding (arm-empty)
Adding (on-table b14)

Checking next happening (time 67)
Deleting (on b4 b2)
Deleting (clear b4)
Deleting (arm-empty)
Adding (holding b4)
Adding (clear b2)

Checking next happening (time 68)
Deleting (holding b4)
Adding (clear b4)
Adding (arm-empty)
Adding (on-table b4)

Checking next happening (time 69)
Deleting (on b2 b21)
Deleting (clear b2)
Deleting (arm-empty)
Adding (holding b2)
Adding (clear b21)

Checking next happening (time 70)
Deleting (clear b3)
Deleting (holding b2)
Adding (arm-empty)
Adding (clear b2)
Adding (on b2 b3)

Checking next happening (time 71)
Deleting (clear b4)
Deleting (on-table b4)
Deleting (arm-empty)
Adding (holding b4)

Checking next happening (time 72)
Deleting (clear b2)
Deleting (holding b4)
Adding (arm-empty)
Adding (clear b4)
Adding (on b4 b2)

Checking next happening (time 73)
Deleting (on b21 b6)
Deleting (clear b21)
Deleting (arm-empty)
Adding (holding b21)
Adding (clear b6)

Checking next happening (time 74)
Deleting (holding b21)
Adding (clear b21)
Adding (arm-empty)
Adding (on-table b21)

Checking next happening (time 75)
Deleting (clear b14)
Deleting (on-table b14)
Deleting (arm-empty)
Adding (holding b14)

Checking next happening (time 76)
Deleting (clear b4)
Deleting (holding b14)
Adding (arm-empty)
Adding (clear b14)
Adding (on b14 b4)

Checking next happening (time 77)
Deleting (clear b22)
Deleting (on-table b22)
Deleting (arm-empty)
Adding (holding b22)

Checking next happening (time 78)
Deleting (clear b14)
Deleting (holding b22)
Adding (arm-empty)
Adding (clear b22)
Adding (on b22 b14)

Checking next happening (time 79)
Deleting (clear b6)
Deleting (on-table b6)
Deleting (arm-empty)
Adding (holding b6)

Checking next happening (time 80)
Deleting (clear b12)
Deleting (holding b6)
Adding (arm-empty)
Adding (clear b6)
Adding (on b6 b12)

Checking next happening (time 81)
Deleting (clear b20)
Deleting (on-table b20)
Deleting (arm-empty)
Adding (holding b20)

Checking next happening (time 82)
Deleting (clear b11)
Deleting (holding b20)
Adding (arm-empty)
Adding (clear b20)
Adding (on b20 b11)

Checking next happening (time 83)
Deleting (clear b18)
Deleting (on-table b18)
Deleting (arm-empty)
Adding (holding b18)

Checking next happening (time 84)
Deleting (clear b22)
Deleting (holding b18)
Adding (arm-empty)
Adding (clear b18)
Adding (on b18 b22)

Checking next happening (time 85)
Deleting (clear b16)
Deleting (on-table b16)
Deleting (arm-empty)
Adding (holding b16)

Checking next happening (time 86)
Deleting (clear b18)
Deleting (holding b16)
Adding (arm-empty)
Adding (clear b16)
Adding (on b16 b18)

Checking next happening (time 87)
Deleting (clear b13)
Deleting (on-table b13)
Deleting (arm-empty)
Adding (holding b13)

Checking next happening (time 88)
Deleting (clear b21)
Deleting (holding b13)
Adding (arm-empty)
Adding (clear b13)
Adding (on b13 b21)

Checking next happening (time 89)
Deleting (clear b10)
Deleting (on-table b10)
Deleting (arm-empty)
Adding (holding b10)

Checking next happening (time 90)
Deleting (clear b16)
Deleting (holding b10)
Adding (arm-empty)
Adding (clear b10)
Adding (on b10 b16)

Checking next happening (time 91)
Deleting (on b6 b12)
Deleting (clear b6)
Deleting (arm-empty)
Adding (holding b6)
Adding (clear b12)

Checking next happening (time 92)
Deleting (holding b6)
Adding (clear b6)
Adding (arm-empty)
Adding (on-table b6)

Checking next happening (time 93)
Deleting (clear b12)
Deleting (on-table b12)
Deleting (arm-empty)
Adding (holding b12)

Checking next happening (time 94)
Deleting (clear b10)
Deleting (holding b12)
Adding (arm-empty)
Adding (clear b12)
Adding (on b12 b10)

Checking next happening (time 95)
Deleting (clear b6)
Deleting (on-table b6)
Deleting (arm-empty)
Adding (holding b6)

Checking next happening (time 96)
Deleting (clear b12)
Deleting (holding b6)
Adding (arm-empty)
Adding (clear b6)
Adding (on b6 b12)

Checking next happening (time 97)
Deleting (on b5 b1)
Deleting (clear b5)
Deleting (arm-empty)
Adding (holding b5)
Adding (clear b1)

Checking next happening (time 98)
Deleting (holding b5)
Adding (clear b5)
Adding (arm-empty)
Adding (on-table b5)

Checking next happening (time 99)
Deleting (clear b1)
Deleting (on-table b1)
Deleting (arm-empty)
Adding (holding b1)

Checking next happening (time 100)
Deleting (clear b6)
Deleting (holding b1)
Adding (arm-empty)
Adding (clear b1)
Adding (on b1 b6)

Checking next happening (time 101)
Deleting (clear b5)
Deleting (on-table b5)
Deleting (arm-empty)
Adding (holding b5)

Checking next happening (time 102)
Deleting (clear b1)
Deleting (holding b5)
Adding (arm-empty)
Adding (clear b5)
Adding (on b5 b1)

Checking next happening (time 103)
Deleting (on b20 b11)
Deleting (clear b20)
Deleting (arm-empty)
Adding (holding b20)
Adding (clear b11)

Checking next happening (time 104)
Deleting (holding b20)
Adding (clear b20)
Adding (arm-empty)
Adding (on-table b20)

Checking next happening (time 105)
Deleting (clear b11)
Deleting (on-table b11)
Deleting (arm-empty)
Adding (holding b11)

Checking next happening (time 106)
Deleting (clear b5)
Deleting (holding b11)
Adding (arm-empty)
Adding (clear b11)
Adding (on b11 b5)

Checking next happening (time 107)
Deleting (clear b20)
Deleting (on-table b20)
Deleting (arm-empty)
Adding (holding b20)

Checking next happening (time 108)
Deleting (clear b11)
Deleting (holding b20)
Adding (arm-empty)
Adding (clear b20)
Adding (on b20 b11)
Plan executed successfully - checking goal
Plan valid
Final value: 108 

Successful plans:
Value: 108
 /home/jfan5/Safety-gen/runs/benchmark/optic/blocksworld_20260205_140901/blocksworld/optic_results/bw_ops3_n22_seed22001.plan 108
